robust/generate/spp_dkp_Lefebvre_et_al_2026/src/shortest_path_10_5.kp
47
340

[0.54 4.6 3.44 1.66 3.34 3.78 3.05 1.96 3.33 1.16 1.21 0.11 0.47 1.42 3.03 1.52 0.88 4.33 1.28 1.29 4.51 0.6 3.53 0.02 4.05 3.29 2.61 4.42 2.42 0.84 2.54 1.39 0.05 4.17 3.1 4.45 3.52 1.26 1.71 2.49 2.58 1.22 0.82 1.7 0.66 1.84 2.23 4.58 0.69 2.43 2.49 1.44 0.75 2.82 0.49 2.68 1.82 0.4 2.65 3.06 3.13 0.89 4.51 0.28 4.16 3.7 1.19 4.38 2.1 1.78 4.22 3.56]

[32 49 89 93 55 67 24 99 33 64 94 84 10 60 44 30 82 13 59 25 88 50 12 10 41 66 73 81 17 6 85 79 6 45 93 9 70 73 11 32 18 92 92 22 45 19 35 47 57 36 85 45 87 75 16 38 58 13 36 87 74 28 36 31 96 95 46 10 53 74 50 96]
