robust/generate/spp_dkp_Lefebvre_et_al_2026/src/shortest_path_10_5.lp
\ Model sp_10_5
\ LP format - for model browsing. Use MPS format to capture full model detail.
\ Signature: 0xe108111d0dabced
Minimize
  62.8 y[0,1] + 66.29 y[0,2] + 24.08 y[0,3] + 45.62 y[0,4] + 70.18 y[0,5]
   + 42.3 y[0,8] + 51.48 y[0,9] + 62.8 y[1,0] + 4.24 y[1,2] + 39.85 y[1,3]
   + 23.26 y[1,4] + 9.43 y[1,5] + 58.83 y[1,6] + 14.14 y[1,7]
   + 66.29 y[1,9] + 66.29 y[2,0] + 4.24 y[2,1] + 43.66 y[2,3] + 25 y[2,4]
   + 9.43 y[2,5] + 59.94 y[2,6] + 12.08 y[2,7] + 70.46 y[2,9]
   + 24.08 y[3,0] + 39.85 y[3,1] + 43.66 y[3,2] + 27.8 y[3,4]
   + 46.53 y[3,5] + 52.95 y[3,7] + 44.28 y[3,8] + 43.01 y[3,9]
   + 45.62 y[4,0] + 23.26 y[4,1] + 25 y[4,2] + 27.8 y[4,3] + 32.65 y[4,5]
   + 37 y[4,7] + 71.69 y[4,8] + 66.94 y[4,9] + 70.18 y[5,0] + 9.43 y[5,1]
   + 9.43 y[5,2] + 46.53 y[5,3] + 32.65 y[5,4] + 50.54 y[5,6] + 6.71 y[5,7]
   + 67.27 y[5,9] + 58.83 y[6,1] + 59.94 y[6,2] + 50.54 y[6,5]
   + 50.92 y[6,7] + 68.18 y[6,9] + 14.14 y[7,1] + 12.08 y[7,2]
   + 52.95 y[7,3] + 37 y[7,4] + 6.71 y[7,5] + 50.92 y[7,6] + 73.55 y[7,9]
   + 42.3 y[8,0] + 44.28 y[8,3] + 71.69 y[8,4] + 20.22 y[8,9]
   + 51.48 y[9,0] + 66.29 y[9,1] + 70.46 y[9,2] + 43.01 y[9,3]
   + 66.94 y[9,4] + 67.27 y[9,5] + 68.18 y[9,6] + 73.55 y[9,7]
   + 20.22 y[9,8] + 6.28 r[0,1] + 6.629 r[0,2] + 2.408 r[0,3]
   + 4.562 r[0,4] + 7.018 r[0,5] + 4.23 r[0,8] + 5.148 r[0,9] + 6.28 r[1,0]
   + 0.424 r[1,2] + 3.985 r[1,3] + 2.326 r[1,4] + 0.943 r[1,5]
   + 5.883 r[1,6] + 1.414 r[1,7] + 6.629 r[1,9] + 6.629 r[2,0]
   + 0.424 r[2,1] + 4.366 r[2,3] + 2.5 r[2,4] + 0.943 r[2,5] + 5.994 r[2,6]
   + 1.208 r[2,7] + 7.046 r[2,9] + 2.408 r[3,0] + 3.985 r[3,1]
   + 4.366 r[3,2] + 2.78 r[3,4] + 4.653 r[3,5] + 5.295 r[3,7]
   + 4.428 r[3,8] + 4.301 r[3,9] + 4.562 r[4,0] + 2.326 r[4,1] + 2.5 r[4,2]
   + 2.78 r[4,3] + 3.265 r[4,5] + 3.7 r[4,7] + 7.169 r[4,8] + 6.694 r[4,9]
   + 7.018 r[5,0] + 0.943 r[5,1] + 0.943 r[5,2] + 4.653 r[5,3]
   + 3.265 r[5,4] + 5.054 r[5,6] + 0.671 r[5,7] + 6.727 r[5,9]
   + 5.883 r[6,1] + 5.994 r[6,2] + 5.054 r[6,5] + 5.092 r[6,7]
   + 6.818 r[6,9] + 1.414 r[7,1] + 1.208 r[7,2] + 5.295 r[7,3] + 3.7 r[7,4]
   + 0.671 r[7,5] + 5.092 r[7,6] + 7.355 r[7,9] + 4.23 r[8,0]
   + 4.428 r[8,3] + 7.169 r[8,4] + 2.022 r[8,9] + 5.148 r[9,0]
   + 6.629 r[9,1] + 7.046 r[9,2] + 4.301 r[9,3] + 6.694 r[9,4]
   + 6.727 r[9,5] + 6.818 r[9,6] + 7.355 r[9,7] + 2.022 r[9,8]
Subject To
 flow_cons_inner_nodes[1]: y[0,1] - y[1,0] - y[1,2] - y[1,3] - y[1,4]
   - y[1,5] - y[1,6] - y[1,7] - y[1,9] + y[2,1] + y[3,1] + y[4,1] + y[5,1]
   + y[6,1] + y[7,1] + y[9,1] = 0
 flow_cons_inner_nodes[2]: y[0,2] + y[1,2] - y[2,0] - y[2,1] - y[2,3]
   - y[2,4] - y[2,5] - y[2,6] - y[2,7] - y[2,9] + y[3,2] + y[4,2] + y[5,2]
   + y[6,2] + y[7,2] + y[9,2] = 0
 flow_cons_inner_nodes[3]: y[0,3] + y[1,3] + y[2,3] - y[3,0] - y[3,1]
   - y[3,2] - y[3,4] - y[3,5] - y[3,7] - y[3,8] - y[3,9] + y[4,3] + y[5,3]
   + y[7,3] + y[8,3] + y[9,3] = 0
 flow_cons_inner_nodes[4]: y[0,4] + y[1,4] + y[2,4] + y[3,4] - y[4,0]
   - y[4,1] - y[4,2] - y[4,3] - y[4,5] - y[4,7] - y[4,8] - y[4,9] + y[5,4]
   + y[7,4] + y[8,4] + y[9,4] = 0
 flow_cons_inner_nodes[5]: y[0,5] + y[1,5] + y[2,5] + y[3,5] + y[4,5]
   - y[5,0] - y[5,1] - y[5,2] - y[5,3] - y[5,4] - y[5,6] - y[5,7] - y[5,9]
   + y[6,5] + y[7,5] + y[9,5] = 0
 flow_cons_inner_nodes[7]: y[1,7] + y[2,7] + y[3,7] + y[4,7] + y[5,7]
   + y[6,7] - y[7,1] - y[7,2] - y[7,3] - y[7,4] - y[7,5] - y[7,6] - y[7,9]
   + y[9,7] = 0
 flow_cons_inner_nodes[8]: y[0,8] + y[3,8] + y[4,8] - y[8,0] - y[8,3]
   - y[8,4] - y[8,9] + y[9,8] = 0
 flow_cons_inner_nodes[9]: y[0,9] + y[1,9] + y[2,9] + y[3,9] + y[4,9]
   + y[5,9] + y[6,9] + y[7,9] + y[8,9] - y[9,0] - y[9,1] - y[9,2] - y[9,3]
   - y[9,4] - y[9,5] - y[9,6] - y[9,7] - y[9,8] = 0
 flow_cons_source: y[0,1] + y[0,2] + y[0,3] + y[0,4] + y[0,5] + y[0,8]
   + y[0,9] - y[1,0] - y[2,0] - y[3,0] - y[4,0] - y[5,0] - y[8,0] - y[9,0]
   = 1
 flow_cons_target: y[1,6] + y[2,6] + y[5,6] - y[6,1] - y[6,2] - y[6,5]
   - y[6,7] - y[6,9] + y[7,6] + y[9,6] = 1
 primal_lower: - 0.54 y[0,1] - 4.6 y[0,2] - 3.44 y[0,3] - 1.66 y[0,4]
   - 3.34 y[0,5] - 3.78 y[0,8] - 3.05 y[0,9] - 1.96 y[1,0] - 3.33 y[1,2]
   - 1.16 y[1,3] - 1.21 y[1,4] - 0.11 y[1,5] - 0.47 y[1,6] - 1.42 y[1,7]
   - 3.03 y[1,9] - 1.52 y[2,0] - 0.88 y[2,1] - 4.33 y[2,3] - 1.28 y[2,4]
   - 1.29 y[2,5] - 4.51 y[2,6] - 0.6 y[2,7] - 3.53 y[2,9] - 0.02 y[3,0]
   - 4.05 y[3,1] - 3.29 y[3,2] - 2.61 y[3,4] - 4.42 y[3,5] - 2.42 y[3,7]
   - 0.84 y[3,8] - 2.54 y[3,9] - 1.39 y[4,0] - 0.05 y[4,1] - 4.17 y[4,2]
   - 3.1 y[4,3] - 4.45 y[4,5] - 3.52 y[4,7] - 1.26 y[4,8] - 1.71 y[4,9]
   - 2.49 y[5,0] - 2.58 y[5,1] - 1.22 y[5,2] - 0.82 y[5,3] - 1.7 y[5,4]
   - 0.66 y[5,6] - 1.84 y[5,7] - 2.23 y[5,9] - 4.58 y[6,1] - 0.69 y[6,2]
   - 2.43 y[6,5] - 2.49 y[6,7] - 1.44 y[6,9] - 0.75 y[7,1] - 2.82 y[7,2]
   - 0.49 y[7,3] - 2.68 y[7,4] - 1.82 y[7,5] - 0.4 y[7,6] - 2.65 y[7,9]
   - 3.06 y[8,0] - 3.13 y[8,3] - 0.89 y[8,4] - 4.51 y[8,9] - 0.28 y[9,0]
   - 4.16 y[9,1] - 3.7 y[9,2] - 1.19 y[9,3] - 4.38 y[9,4] - 2.1 y[9,5]
   - 1.78 y[9,6] - 4.22 y[9,7] - 3.56 y[9,8] + 32 u[0,1] + 49 u[0,2]
   + 89 u[0,3] + 93 u[0,4] + 55 u[0,5] + 67 u[0,8] + 24 u[0,9] + 99 u[1,0]
   + 33 u[1,2] + 64 u[1,3] + 94 u[1,4] + 84 u[1,5] + 10 u[1,6] + 60 u[1,7]
   + 44 u[1,9] + 30 u[2,0] + 82 u[2,1] + 13 u[2,3] + 59 u[2,4] + 25 u[2,5]
   + 88 u[2,6] + 50 u[2,7] + 12 u[2,9] + 10 u[3,0] + 41 u[3,1] + 66 u[3,2]
   + 73 u[3,4] + 81 u[3,5] + 17 u[3,7] + 6 u[3,8] + 85 u[3,9] + 79 u[4,0]
   + 6 u[4,1] + 45 u[4,2] + 93 u[4,3] + 9 u[4,5] + 70 u[4,7] + 73 u[4,8]
   + 11 u[4,9] + 32 u[5,0] + 18 u[5,1] + 92 u[5,2] + 92 u[5,3] + 22 u[5,4]
   + 45 u[5,6] + 19 u[5,7] + 35 u[5,9] + 47 u[6,1] + 57 u[6,2] + 36 u[6,5]
   + 85 u[6,7] + 45 u[6,9] + 87 u[7,1] + 75 u[7,2] + 16 u[7,3] + 38 u[7,4]
   + 58 u[7,5] + 13 u[7,6] + 36 u[7,9] + 87 u[8,0] + 74 u[8,3] + 28 u[8,4]
   + 36 u[8,9] + 31 u[9,0] + 96 u[9,1] + 95 u[9,2] + 46 u[9,3] + 10 u[9,4]
   + 53 u[9,5] + 74 u[9,6] + 50 u[9,7] + 96 u[9,8] <= 340
 mccormick1[0,1]: - u[0,1] + r[0,1] <= 0
 mccormick1[0,2]: - u[0,2] + r[0,2] <= 0
 mccormick1[0,3]: - u[0,3] + r[0,3] <= 0
 mccormick1[0,4]: - u[0,4] + r[0,4] <= 0
 mccormick1[0,5]: - u[0,5] + r[0,5] <= 0
 mccormick1[0,8]: - u[0,8] + r[0,8] <= 0
 mccormick1[0,9]: - u[0,9] + r[0,9] <= 0
 mccormick1[1,0]: - u[1,0] + r[1,0] <= 0
 mccormick1[1,2]: - u[1,2] + r[1,2] <= 0
 mccormick1[1,3]: - u[1,3] + r[1,3] <= 0
 mccormick1[1,4]: - u[1,4] + r[1,4] <= 0
 mccormick1[1,5]: - u[1,5] + r[1,5] <= 0
 mccormick1[1,6]: - u[1,6] + r[1,6] <= 0
 mccormick1[1,7]: - u[1,7] + r[1,7] <= 0
 mccormick1[1,9]: - u[1,9] + r[1,9] <= 0
 mccormick1[2,0]: - u[2,0] + r[2,0] <= 0
 mccormick1[2,1]: - u[2,1] + r[2,1] <= 0
 mccormick1[2,3]: - u[2,3] + r[2,3] <= 0
 mccormick1[2,4]: - u[2,4] + r[2,4] <= 0
 mccormick1[2,5]: - u[2,5] + r[2,5] <= 0
 mccormick1[2,6]: - u[2,6] + r[2,6] <= 0
 mccormick1[2,7]: - u[2,7] + r[2,7] <= 0
 mccormick1[2,9]: - u[2,9] + r[2,9] <= 0
 mccormick1[3,0]: - u[3,0] + r[3,0] <= 0
 mccormick1[3,1]: - u[3,1] + r[3,1] <= 0
 mccormick1[3,2]: - u[3,2] + r[3,2] <= 0
 mccormick1[3,4]: - u[3,4] + r[3,4] <= 0
 mccormick1[3,5]: - u[3,5] + r[3,5] <= 0
 mccormick1[3,7]: - u[3,7] + r[3,7] <= 0
 mccormick1[3,8]: - u[3,8] + r[3,8] <= 0
 mccormick1[3,9]: - u[3,9] + r[3,9] <= 0
 mccormick1[4,0]: - u[4,0] + r[4,0] <= 0
 mccormick1[4,1]: - u[4,1] + r[4,1] <= 0
 mccormick1[4,2]: - u[4,2] + r[4,2] <= 0
 mccormick1[4,3]: - u[4,3] + r[4,3] <= 0
 mccormick1[4,5]: - u[4,5] + r[4,5] <= 0
 mccormick1[4,7]: - u[4,7] + r[4,7] <= 0
 mccormick1[4,8]: - u[4,8] + r[4,8] <= 0
 mccormick1[4,9]: - u[4,9] + r[4,9] <= 0
 mccormick1[5,0]: - u[5,0] + r[5,0] <= 0
 mccormick1[5,1]: - u[5,1] + r[5,1] <= 0
 mccormick1[5,2]: - u[5,2] + r[5,2] <= 0
 mccormick1[5,3]: - u[5,3] + r[5,3] <= 0
 mccormick1[5,4]: - u[5,4] + r[5,4] <= 0
 mccormick1[5,6]: - u[5,6] + r[5,6] <= 0
 mccormick1[5,7]: - u[5,7] + r[5,7] <= 0
 mccormick1[5,9]: - u[5,9] + r[5,9] <= 0
 mccormick1[6,1]: - u[6,1] + r[6,1] <= 0
 mccormick1[6,2]: - u[6,2] + r[6,2] <= 0
 mccormick1[6,5]: - u[6,5] + r[6,5] <= 0
 mccormick1[6,7]: - u[6,7] + r[6,7] <= 0
 mccormick1[6,9]: - u[6,9] + r[6,9] <= 0
 mccormick1[7,1]: - u[7,1] + r[7,1] <= 0
 mccormick1[7,2]: - u[7,2] + r[7,2] <= 0
 mccormick1[7,3]: - u[7,3] + r[7,3] <= 0
 mccormick1[7,4]: - u[7,4] + r[7,4] <= 0
 mccormick1[7,5]: - u[7,5] + r[7,5] <= 0
 mccormick1[7,6]: - u[7,6] + r[7,6] <= 0
 mccormick1[7,9]: - u[7,9] + r[7,9] <= 0
 mccormick1[8,0]: - u[8,0] + r[8,0] <= 0
 mccormick1[8,3]: - u[8,3] + r[8,3] <= 0
 mccormick1[8,4]: - u[8,4] + r[8,4] <= 0
 mccormick1[8,9]: - u[8,9] + r[8,9] <= 0
 mccormick1[9,0]: - u[9,0] + r[9,0] <= 0
 mccormick1[9,1]: - u[9,1] + r[9,1] <= 0
 mccormick1[9,2]: - u[9,2] + r[9,2] <= 0
 mccormick1[9,3]: - u[9,3] + r[9,3] <= 0
 mccormick1[9,4]: - u[9,4] + r[9,4] <= 0
 mccormick1[9,5]: - u[9,5] + r[9,5] <= 0
 mccormick1[9,6]: - u[9,6] + r[9,6] <= 0
 mccormick1[9,7]: - u[9,7] + r[9,7] <= 0
 mccormick1[9,8]: - u[9,8] + r[9,8] <= 0
 mccormick2[0,1]: - y[0,1] + r[0,1] <= 0
 mccormick2[0,2]: - y[0,2] + r[0,2] <= 0
 mccormick2[0,3]: - y[0,3] + r[0,3] <= 0
 mccormick2[0,4]: - y[0,4] + r[0,4] <= 0
 mccormick2[0,5]: - y[0,5] + r[0,5] <= 0
 mccormick2[0,8]: - y[0,8] + r[0,8] <= 0
 mccormick2[0,9]: - y[0,9] + r[0,9] <= 0
 mccormick2[1,0]: - y[1,0] + r[1,0] <= 0
 mccormick2[1,2]: - y[1,2] + r[1,2] <= 0
 mccormick2[1,3]: - y[1,3] + r[1,3] <= 0
 mccormick2[1,4]: - y[1,4] + r[1,4] <= 0
 mccormick2[1,5]: - y[1,5] + r[1,5] <= 0
 mccormick2[1,6]: - y[1,6] + r[1,6] <= 0
 mccormick2[1,7]: - y[1,7] + r[1,7] <= 0
 mccormick2[1,9]: - y[1,9] + r[1,9] <= 0
 mccormick2[2,0]: - y[2,0] + r[2,0] <= 0
 mccormick2[2,1]: - y[2,1] + r[2,1] <= 0
 mccormick2[2,3]: - y[2,3] + r[2,3] <= 0
 mccormick2[2,4]: - y[2,4] + r[2,4] <= 0
 mccormick2[2,5]: - y[2,5] + r[2,5] <= 0
 mccormick2[2,6]: - y[2,6] + r[2,6] <= 0
 mccormick2[2,7]: - y[2,7] + r[2,7] <= 0
 mccormick2[2,9]: - y[2,9] + r[2,9] <= 0
 mccormick2[3,0]: - y[3,0] + r[3,0] <= 0
 mccormick2[3,1]: - y[3,1] + r[3,1] <= 0
 mccormick2[3,2]: - y[3,2] + r[3,2] <= 0
 mccormick2[3,4]: - y[3,4] + r[3,4] <= 0
 mccormick2[3,5]: - y[3,5] + r[3,5] <= 0
 mccormick2[3,7]: - y[3,7] + r[3,7] <= 0
 mccormick2[3,8]: - y[3,8] + r[3,8] <= 0
 mccormick2[3,9]: - y[3,9] + r[3,9] <= 0
 mccormick2[4,0]: - y[4,0] + r[4,0] <= 0
 mccormick2[4,1]: - y[4,1] + r[4,1] <= 0
 mccormick2[4,2]: - y[4,2] + r[4,2] <= 0
 mccormick2[4,3]: - y[4,3] + r[4,3] <= 0
 mccormick2[4,5]: - y[4,5] + r[4,5] <= 0
 mccormick2[4,7]: - y[4,7] + r[4,7] <= 0
 mccormick2[4,8]: - y[4,8] + r[4,8] <= 0
 mccormick2[4,9]: - y[4,9] + r[4,9] <= 0
 mccormick2[5,0]: - y[5,0] + r[5,0] <= 0
 mccormick2[5,1]: - y[5,1] + r[5,1] <= 0
 mccormick2[5,2]: - y[5,2] + r[5,2] <= 0
 mccormick2[5,3]: - y[5,3] + r[5,3] <= 0
 mccormick2[5,4]: - y[5,4] + r[5,4] <= 0
 mccormick2[5,6]: - y[5,6] + r[5,6] <= 0
 mccormick2[5,7]: - y[5,7] + r[5,7] <= 0
 mccormick2[5,9]: - y[5,9] + r[5,9] <= 0
 mccormick2[6,1]: - y[6,1] + r[6,1] <= 0
 mccormick2[6,2]: - y[6,2] + r[6,2] <= 0
 mccormick2[6,5]: - y[6,5] + r[6,5] <= 0
 mccormick2[6,7]: - y[6,7] + r[6,7] <= 0
 mccormick2[6,9]: - y[6,9] + r[6,9] <= 0
 mccormick2[7,1]: - y[7,1] + r[7,1] <= 0
 mccormick2[7,2]: - y[7,2] + r[7,2] <= 0
 mccormick2[7,3]: - y[7,3] + r[7,3] <= 0
 mccormick2[7,4]: - y[7,4] + r[7,4] <= 0
 mccormick2[7,5]: - y[7,5] + r[7,5] <= 0
 mccormick2[7,6]: - y[7,6] + r[7,6] <= 0
 mccormick2[7,9]: - y[7,9] + r[7,9] <= 0
 mccormick2[8,0]: - y[8,0] + r[8,0] <= 0
 mccormick2[8,3]: - y[8,3] + r[8,3] <= 0
 mccormick2[8,4]: - y[8,4] + r[8,4] <= 0
 mccormick2[8,9]: - y[8,9] + r[8,9] <= 0
 mccormick2[9,0]: - y[9,0] + r[9,0] <= 0
 mccormick2[9,1]: - y[9,1] + r[9,1] <= 0
 mccormick2[9,2]: - y[9,2] + r[9,2] <= 0
 mccormick2[9,3]: - y[9,3] + r[9,3] <= 0
 mccormick2[9,4]: - y[9,4] + r[9,4] <= 0
 mccormick2[9,5]: - y[9,5] + r[9,5] <= 0
 mccormick2[9,6]: - y[9,6] + r[9,6] <= 0
 mccormick2[9,7]: - y[9,7] + r[9,7] <= 0
 mccormick2[9,8]: - y[9,8] + r[9,8] <= 0
 mccormick3[0,1]: - y[0,1] - u[0,1] + r[0,1] >= -1
 mccormick3[0,2]: - y[0,2] - u[0,2] + r[0,2] >= -1
 mccormick3[0,3]: - y[0,3] - u[0,3] + r[0,3] >= -1
 mccormick3[0,4]: - y[0,4] - u[0,4] + r[0,4] >= -1
 mccormick3[0,5]: - y[0,5] - u[0,5] + r[0,5] >= -1
 mccormick3[0,8]: - y[0,8] - u[0,8] + r[0,8] >= -1
 mccormick3[0,9]: - y[0,9] - u[0,9] + r[0,9] >= -1
 mccormick3[1,0]: - y[1,0] - u[1,0] + r[1,0] >= -1
 mccormick3[1,2]: - y[1,2] - u[1,2] + r[1,2] >= -1
 mccormick3[1,3]: - y[1,3] - u[1,3] + r[1,3] >= -1
 mccormick3[1,4]: - y[1,4] - u[1,4] + r[1,4] >= -1
 mccormick3[1,5]: - y[1,5] - u[1,5] + r[1,5] >= -1
 mccormick3[1,6]: - y[1,6] - u[1,6] + r[1,6] >= -1
 mccormick3[1,7]: - y[1,7] - u[1,7] + r[1,7] >= -1
 mccormick3[1,9]: - y[1,9] - u[1,9] + r[1,9] >= -1
 mccormick3[2,0]: - y[2,0] - u[2,0] + r[2,0] >= -1
 mccormick3[2,1]: - y[2,1] - u[2,1] + r[2,1] >= -1
 mccormick3[2,3]: - y[2,3] - u[2,3] + r[2,3] >= -1
 mccormick3[2,4]: - y[2,4] - u[2,4] + r[2,4] >= -1
 mccormick3[2,5]: - y[2,5] - u[2,5] + r[2,5] >= -1
 mccormick3[2,6]: - y[2,6] - u[2,6] + r[2,6] >= -1
 mccormick3[2,7]: - y[2,7] - u[2,7] + r[2,7] >= -1
 mccormick3[2,9]: - y[2,9] - u[2,9] + r[2,9] >= -1
 mccormick3[3,0]: - y[3,0] - u[3,0] + r[3,0] >= -1
 mccormick3[3,1]: - y[3,1] - u[3,1] + r[3,1] >= -1
 mccormick3[3,2]: - y[3,2] - u[3,2] + r[3,2] >= -1
 mccormick3[3,4]: - y[3,4] - u[3,4] + r[3,4] >= -1
 mccormick3[3,5]: - y[3,5] - u[3,5] + r[3,5] >= -1
 mccormick3[3,7]: - y[3,7] - u[3,7] + r[3,7] >= -1
 mccormick3[3,8]: - y[3,8] - u[3,8] + r[3,8] >= -1
 mccormick3[3,9]: - y[3,9] - u[3,9] + r[3,9] >= -1
 mccormick3[4,0]: - y[4,0] - u[4,0] + r[4,0] >= -1
 mccormick3[4,1]: - y[4,1] - u[4,1] + r[4,1] >= -1
 mccormick3[4,2]: - y[4,2] - u[4,2] + r[4,2] >= -1
 mccormick3[4,3]: - y[4,3] - u[4,3] + r[4,3] >= -1
 mccormick3[4,5]: - y[4,5] - u[4,5] + r[4,5] >= -1
 mccormick3[4,7]: - y[4,7] - u[4,7] + r[4,7] >= -1
 mccormick3[4,8]: - y[4,8] - u[4,8] + r[4,8] >= -1
 mccormick3[4,9]: - y[4,9] - u[4,9] + r[4,9] >= -1
 mccormick3[5,0]: - y[5,0] - u[5,0] + r[5,0] >= -1
 mccormick3[5,1]: - y[5,1] - u[5,1] + r[5,1] >= -1
 mccormick3[5,2]: - y[5,2] - u[5,2] + r[5,2] >= -1
 mccormick3[5,3]: - y[5,3] - u[5,3] + r[5,3] >= -1
 mccormick3[5,4]: - y[5,4] - u[5,4] + r[5,4] >= -1
 mccormick3[5,6]: - y[5,6] - u[5,6] + r[5,6] >= -1
 mccormick3[5,7]: - y[5,7] - u[5,7] + r[5,7] >= -1
 mccormick3[5,9]: - y[5,9] - u[5,9] + r[5,9] >= -1
 mccormick3[6,1]: - y[6,1] - u[6,1] + r[6,1] >= -1
 mccormick3[6,2]: - y[6,2] - u[6,2] + r[6,2] >= -1
 mccormick3[6,5]: - y[6,5] - u[6,5] + r[6,5] >= -1
 mccormick3[6,7]: - y[6,7] - u[6,7] + r[6,7] >= -1
 mccormick3[6,9]: - y[6,9] - u[6,9] + r[6,9] >= -1
 mccormick3[7,1]: - y[7,1] - u[7,1] + r[7,1] >= -1
 mccormick3[7,2]: - y[7,2] - u[7,2] + r[7,2] >= -1
 mccormick3[7,3]: - y[7,3] - u[7,3] + r[7,3] >= -1
 mccormick3[7,4]: - y[7,4] - u[7,4] + r[7,4] >= -1
 mccormick3[7,5]: - y[7,5] - u[7,5] + r[7,5] >= -1
 mccormick3[7,6]: - y[7,6] - u[7,6] + r[7,6] >= -1
 mccormick3[7,9]: - y[7,9] - u[7,9] + r[7,9] >= -1
 mccormick3[8,0]: - y[8,0] - u[8,0] + r[8,0] >= -1
 mccormick3[8,3]: - y[8,3] - u[8,3] + r[8,3] >= -1
 mccormick3[8,4]: - y[8,4] - u[8,4] + r[8,4] >= -1
 mccormick3[8,9]: - y[8,9] - u[8,9] + r[8,9] >= -1
 mccormick3[9,0]: - y[9,0] - u[9,0] + r[9,0] >= -1
 mccormick3[9,1]: - y[9,1] - u[9,1] + r[9,1] >= -1
 mccormick3[9,2]: - y[9,2] - u[9,2] + r[9,2] >= -1
 mccormick3[9,3]: - y[9,3] - u[9,3] + r[9,3] >= -1
 mccormick3[9,4]: - y[9,4] - u[9,4] + r[9,4] >= -1
 mccormick3[9,5]: - y[9,5] - u[9,5] + r[9,5] >= -1
 mccormick3[9,6]: - y[9,6] - u[9,6] + r[9,6] >= -1
 mccormick3[9,7]: - y[9,7] - u[9,7] + r[9,7] >= -1
 mccormick3[9,8]: - y[9,8] - u[9,8] + r[9,8] >= -1
Bounds
Binaries
 y[0,1] y[0,2] y[0,3] y[0,4] y[0,5] y[0,8] y[0,9] y[1,0] y[1,2] y[1,3]
 y[1,4] y[1,5] y[1,6] y[1,7] y[1,9] y[2,0] y[2,1] y[2,3] y[2,4] y[2,5]
 y[2,6] y[2,7] y[2,9] y[3,0] y[3,1] y[3,2] y[3,4] y[3,5] y[3,7] y[3,8]
 y[3,9] y[4,0] y[4,1] y[4,2] y[4,3] y[4,5] y[4,7] y[4,8] y[4,9] y[5,0]
 y[5,1] y[5,2] y[5,3] y[5,4] y[5,6] y[5,7] y[5,9] y[6,1] y[6,2] y[6,5]
 y[6,7] y[6,9] y[7,1] y[7,2] y[7,3] y[7,4] y[7,5] y[7,6] y[7,9] y[8,0]
 y[8,3] y[8,4] y[8,9] y[9,0] y[9,1] y[9,2] y[9,3] y[9,4] y[9,5] y[9,6]
 y[9,7] y[9,8] u[0,1] u[0,2] u[0,3] u[0,4] u[0,5] u[0,8] u[0,9] u[1,0]
 u[1,2] u[1,3] u[1,4] u[1,5] u[1,6] u[1,7] u[1,9] u[2,0] u[2,1] u[2,3]
 u[2,4] u[2,5] u[2,6] u[2,7] u[2,9] u[3,0] u[3,1] u[3,2] u[3,4] u[3,5]
 u[3,7] u[3,8] u[3,9] u[4,0] u[4,1] u[4,2] u[4,3] u[4,5] u[4,7] u[4,8]
 u[4,9] u[5,0] u[5,1] u[5,2] u[5,3] u[5,4] u[5,6] u[5,7] u[5,9] u[6,1]
 u[6,2] u[6,5] u[6,7] u[6,9] u[7,1] u[7,2] u[7,3] u[7,4] u[7,5] u[7,6]
 u[7,9] u[8,0] u[8,3] u[8,4] u[8,9] u[9,0] u[9,1] u[9,2] u[9,3] u[9,4]
 u[9,5] u[9,6] u[9,7] u[9,8] r[0,1] r[0,2] r[0,3] r[0,4] r[0,5] r[0,8]
 r[0,9] r[1,0] r[1,2] r[1,3] r[1,4] r[1,5] r[1,6] r[1,7] r[1,9] r[2,0]
 r[2,1] r[2,3] r[2,4] r[2,5] r[2,6] r[2,7] r[2,9] r[3,0] r[3,1] r[3,2]
 r[3,4] r[3,5] r[3,7] r[3,8] r[3,9] r[4,0] r[4,1] r[4,2] r[4,3] r[4,5]
 r[4,7] r[4,8] r[4,9] r[5,0] r[5,1] r[5,2] r[5,3] r[5,4] r[5,6] r[5,7]
 r[5,9] r[6,1] r[6,2] r[6,5] r[6,7] r[6,9] r[7,1] r[7,2] r[7,3] r[7,4]
 r[7,5] r[7,6] r[7,9] r[8,0] r[8,3] r[8,4] r[8,9] r[9,0] r[9,1] r[9,2]
 r[9,3] r[9,4] r[9,5] r[9,6] r[9,7] r[9,8]
End
